		KS	Kuiper	R2	Cramer-von Mises	AD sum
Gumbel	0.99875	0.49125	0.1364	1.0391	0.046935
Weibull	0.85312	0.30325	0.86137	0.31184	0.017367
GEV	0.21322	0.16291	0.97368	0.061781	1.0539
Log-normal	0.94605	0.35665	0.80221	0.67593	0.034137
