Vid frågor kring dessa resultat eller programmet som skapat dem, kontakta Johan Södling
SMHI-användaren som skapat filerna i denna mapp:  a002209
Matlab-version som använts:  9.3.0.713579 (R2017b)
.m-fil som anropats för att få fram dessa resultat: \\winfs-proj\data\proj\au_metod\Workspace\Johan.Sodling\ML_WORK\gev_analyser_workbench\write_log_file.m
Tidsstämpel för när programmet kördes:  2018-01-08 - 13:45:05

Extremvärdes-typ:  max
Antal extremvärden från början:  57
Antal icke-nan extremvärden:  57
Använd sannolikhetsfördelning: wbl
ML-parametrar:  0.998386      644.4231
KS-test:  0.85312 (tumregel: över 0.95 så passar inte data till fördelning)


R2-anpassning:  0.86137
Cramér–von Mises:  0.31184
Anderson-Darling:  0.017367
Kuipers test:  0.30325


Återkomsttider:
1 snow : 0, 95%-konf (0, 0.99423)
2 snow : 0.99782, 95%-konf (0.9972, 0.99837)
5 snow : 0.99912, 95%-konf (0.99857, 0.99958)
10 snow : 0.99968, 95%-konf (0.99909, 1.0001)
20 snow : 1.0001, 95%-konf (0.99942, 1.0006)
25 snow : 1.0002, 95%-konf (0.9995, 1.0007)
50 snow : 1.0005, 95%-konf (0.99968, 1.0011)
100 snow : 1.0008, 95%-konf (0.9998, 1.0014)
200 snow : 1.001, 95%-konf (0.99986, 1.0016)
300 snow : 1.0011, 95%-konf (0.99989, 1.0018)
500 snow : 1.0012, 95%-konf (0.99991, 1.0019)
1000 snow : 1.0014, 95%-konf (0.99992, 1.0021)
10000 snow : 1.0018, 95%-konf (0.99994, 1.0027)
100000 snow : 1.0022, 95%-konf (0.99994, 1.0031)
